# Time-averaged data for fix msd2
# TimeStep Number-of-rows
# Row c_comp2
0 4
1 1.11526e-25
2 4.65289e-25
3 6.15345e-23
4 6.21113e-23
100 4
1 0.0405234
2 0.0404146
3 0.0405134
4 0.121451
200 4
1 0.0346673
2 0.0338466
3 0.0340396
4 0.102554
300 4
1 0.00833139
2 0.00829813
3 0.00825529
4 0.0248848
400 4
1 0.0385995
2 0.037965
3 0.0381943
4 0.114759
500 4
1 0.025601
2 0.0256523
3 0.0253618
4 0.076615
600 4
1 0.0139348
2 0.0138367
3 0.0137079
4 0.0414794
700 4
1 0.0327124
2 0.0322346
3 0.0318753
4 0.0968223
800 4
1 0.0198788
2 0.0198256
3 0.0200197
4 0.0597242
900 4
1 0.0153622
2 0.0154182
3 0.0150706
4 0.045851
1000 4
1 0.0266462
2 0.0261191
3 0.0262854
4 0.0790507
1100 4
1 0.016816
2 0.0170309
3 0.017238
4 0.0510849
1200 4
1 0.0156986
2 0.0153818
3 0.0154322
4 0.0465126
1300 4
1 0.0220931
2 0.0219915
3 0.0220446
4 0.0661293
1400 4
1 0.0150307
2 0.0150763
3 0.0150396
4 0.0451466
1500 4
1 0.0147266
2 0.01469
3 0.0146631
4 0.0440797
1600 4
1 0.0189049
2 0.0188904
3 0.0189123
4 0.0567076
1700 4
1 0.0134111
2 0.0137386
3 0.0135213
4 0.040671
1800 4
1 0.0139369
2 0.0138753
3 0.0137986
4 0.0416109
1900 4
1 0.0166792
2 0.0165368
3 0.0164673
4 0.0496833
2000 4
1 0.0125234
2 0.0123882
3 0.0123508
4 0.0372624
2100 4
1 0.0131398
2 0.0130227
3 0.0128136
4 0.0389761
2200 4
1 0.0147957
2 0.0146593
3 0.0145043
4 0.0439592
2300 4
1 0.0113755
2 0.0114321
3 0.0113424
4 0.03415
2400 4
1 0.0120972
2 0.0120164
3 0.0119732
4 0.0360868
2500 4
1 0.0129872
2 0.0130814
3 0.0130938
4 0.0391624
2600 4
1 0.010695
2 0.0106204
3 0.0105474
4 0.0318628
2700 4
1 0.0110179
2 0.0111602
3 0.0110198
4 0.0331979
2800 4
1 0.0117576
2 0.0116774
3 0.0116642
4 0.0350992
2900 4
1 0.00983188
2 0.00988414
3 0.00963133
4 0.0293473
3000 4
1 0.0102333
2 0.0103002
3 0.0100846
4 0.0306181
3100 4
1 0.0106524
2 0.0105762
3 0.0105233
4 0.0317519
3200 4
1 0.00913456
2 0.00896716
3 0.0089977
4 0.0270994
3300 4
1 0.0095244
2 0.00944356
3 0.0093944
4 0.0283624
3400 4
1 0.00960032
2 0.00953353
3 0.00962513
4 0.028759
3500 4
1 0.00827541
2 0.00835247
3 0.00815211
4 0.02478
3600 4
1 0.00850592
2 0.00861
3 0.00855553
4 0.0256714
3700 4
1 0.00871797
2 0.00874829
3 0.00871511
4 0.0261814
3800 4
1 0.00759937
2 0.0076412
3 0.00750862
4 0.0227492
3900 4
1 0.00791467
2 0.007927
3 0.00791833
4 0.02376
4000 4
1 0.00795621
2 0.0079814
3 0.00792544
4 0.023863
4100 4
1 0.00710145
2 0.00709433
3 0.00702675
4 0.0212225
4200 4
1 0.00723785
2 0.00732047
3 0.00719063
4 0.021749
4300 4
1 0.00731382
2 0.00734736
3 0.00716655
4 0.0218277
4400 4
1 0.00653306
2 0.00648586
3 0.00647256
4 0.0194915
4500 4
1 0.00664176
2 0.00666626
3 0.006581
4 0.019889
4600 4
1 0.00668449
2 0.00666376
3 0.00660044
4 0.0199487
4700 4
1 0.00604965
2 0.00606369
3 0.00593846
4 0.0180518
4800 4
1 0.00617481
2 0.00617693
3 0.0061523
4 0.018504
4900 4
1 0.00611925
2 0.00612241
3 0.0060115
4 0.0182532
5000 4
1 0.00555456
2 0.0055795
3 0.0054748
4 0.0166089
5100 4
1 0.00556321
2 0.00567137
3 0.00561405
4 0.0168486
5200 4
1 0.00563305
2 0.00564977
3 0.00548692
4 0.0167697
5300 4
1 0.00505233
2 0.00497492
3 0.00500561
4 0.0150329
5400 4
1 0.00528145
2 0.00520891
3 0.00516449
4 0.0156549
5500 4
1 0.0050983
2 0.00518587
3 0.0050316
4 0.0153158
5600 4
1 0.00479834
2 0.00472138
3 0.0047171
4 0.0142368
5700 4
1 0.00480905
2 0.00478548
3 0.00472658
4 0.0143211
5800 4
1 0.0046917
2 0.00474183
3 0.00473328
4 0.0141668
5900 4
1 0.00433313
2 0.00440264
3 0.00437219
4 0.013108
6000 4
1 0.00441362
2 0.00447408
3 0.0044718
4 0.0133595
6100 4
1 0.00439183
2 0.00436778
3 0.00433298
4 0.0130926
6200 4
1 0.00404102
2 0.00408071
3 0.00409258
4 0.0122143
6300 4
1 0.00413832
2 0.00411709
3 0.00410649
4 0.0123619
6400 4
1 0.00402289
2 0.00406337
3 0.00402866
4 0.0121149
6500 4
1 0.00379154
2 0.00381758
3 0.00378941
4 0.0113985
6600 4
1 0.00383536
2 0.0038437
3 0.0038149
4 0.011494
6700 4
1 0.00371254
2 0.00375357
3 0.00374602
4 0.0112121
6800 4
1 0.00360814
2 0.00352426
3 0.00351952
4 0.0106519
6900 4
1 0.00358718
2 0.00354386
3 0.00358001
4 0.0107111
7000 4
1 0.00351197
2 0.00354047
3 0.00353771
4 0.0105901
7100 4
1 0.00332937
2 0.00331278
3 0.00330666
4 0.0099488
7200 4
1 0.00335972
2 0.00335115
3 0.00334513
4 0.010056
7300 4
1 0.00331916
2 0.00328747
3 0.00325587
4 0.0098625
7400 4
1 0.00309759
2 0.00308441
3 0.00308548
4 0.00926747
7500 4
1 0.00315487
2 0.00315488
3 0.00315133
4 0.00946108
7600 4
1 0.00313108
2 0.00306354
3 0.00309266
4 0.00928728
7700 4
1 0.00292106
2 0.00293131
3 0.00295608
4 0.00880844
7800 4
1 0.00298451
2 0.00298941
3 0.002955
4 0.00892892
7900 4
1 0.00288903
2 0.00294109
3 0.00294117
4 0.00877128
8000 4
1 0.00278522
2 0.00274489
3 0.00273698
4 0.00826709
8100 4
1 0.00281251
2 0.00280464
3 0.0028158
4 0.00843294
8200 4
1 0.00278901
2 0.00271492
3 0.00273103
4 0.00823496
8300 4
1 0.00265328
2 0.00261679
3 0.00259984
4 0.00786991
8400 4
1 0.002684
2 0.00267105
3 0.00263065
4 0.0079857
8500 4
1 0.00263284
2 0.00258863
3 0.00258134
4 0.0078028
8600 4
1 0.00249028
2 0.00251879
3 0.0024766
4 0.00748567
8700 4
1 0.00248229
2 0.00253298
3 0.00251622
4 0.0075315
8800 4
1 0.00244689
2 0.0024978
3 0.00250551
4 0.0074502
8900 4
1 0.00235176
2 0.00236864
3 0.00234124
4 0.00706165
9000 4
1 0.00238105
2 0.00241312
3 0.00240792
4 0.00720209
9100 4
1 0.00234491
2 0.00237517
3 0.00230311
4 0.00702319
9200 4
1 0.00225287
2 0.00229312
3 0.00226486
4 0.00681085
9300 4
1 0.00229739
2 0.00230179
3 0.0022862
4 0.00688538
9400 4
1 0.00225405
2 0.0022463
3 0.00221434
4 0.00671469
9500 4
1 0.00220214
2 0.00216145
3 0.00214605
4 0.00650964
9600 4
1 0.00220713
2 0.00218855
3 0.00217792
4 0.00657359
9700 4
1 0.00216328
2 0.00215159
3 0.00212306
4 0.00643793
9800 4
1 0.00205359
2 0.00206949
3 0.00208547
4 0.00620854
9900 4
1 0.00209769
2 0.00211918
3 0.0020903
4 0.00630716
10000 4
1 0.00205567
2 0.00203964
3 0.0020564
4 0.0061517
10100 4
1 0.00198279
2 0.0019749
3 0.0020103
4 0.00596799
10200 4
1 0.00200229
2 0.00200905
3 0.00199965
4 0.00601098
10300 4
1 0.0019621
2 0.00197791
3 0.00197634
4 0.00591635
10400 4
1 0.00190152
2 0.00192975
3 0.0018997
4 0.00573097
10500 4
1 0.00195198
2 0.00195229
3 0.00192271
4 0.00582698
10600 4
1 0.00190369
2 0.00190425
3 0.00188106
4 0.005689
10700 4
1 0.00185618
2 0.00180481
3 0.00182459
4 0.00548559
10800 4
1 0.0018642
2 0.00186157
3 0.00184636
4 0.00557213
10900 4
1 0.00182828
2 0.00181872
3 0.00180862
4 0.00545561
11000 4
1 0.00176664
2 0.00176923
3 0.00174821
4 0.00528408
11100 4
1 0.00180138
2 0.00180498
3 0.00177951
4 0.00538588
11200 4
1 0.001748
2 0.00177854
3 0.00173378
4 0.00526031
11300 4
1 0.00171271
2 0.00172591
3 0.00168863
4 0.00512726
11400 4
1 0.00172693
2 0.00175131
3 0.00174415
4 0.00522239
11500 4
1 0.00169054
2 0.00168246
3 0.00167111
4 0.00504411
11600 4
1 0.00163859
2 0.00166096
3 0.00165066
4 0.00495021
11700 4
1 0.00166769
2 0.00168468
3 0.00166197
4 0.00501434
11800 4
1 0.00162587
2 0.00163763
3 0.00162702
4 0.00489053
11900 4
1 0.00161086
2 0.00160245
3 0.00159883
4 0.00481214
12000 4
1 0.00160648
2 0.00163062
3 0.00160663
4 0.00484373
12100 4
1 0.00156987
2 0.00158983
3 0.00157585
4 0.00473556
12200 4
1 0.00156296
2 0.00156334
3 0.0015511
4 0.0046774
12300 4
1 0.0015802
2 0.00157875
3 0.00156778
4 0.00472673
12400 4
1 0.00153177
2 0.00154998
3 0.00152204
4 0.00460379
12500 4
1 0.00153185
2 0.00152129
3 0.0015052
4 0.00455834
12600 4
1 0.00153548
2 0.00150892
3 0.0015282
4 0.00457261
12700 4
1 0.00150154
2 0.00148573
3 0.00147487
4 0.00446214
12800 4
1 0.00147899
2 0.00147498
3 0.00147644
4 0.00443042
12900 4
1 0.00148798
2 0.00149707
3 0.00146741
4 0.00445246
13000 4
1 0.00147265
2 0.00144647
3 0.00144262
4 0.00436175
13100 4
1 0.00140825
2 0.00143129
3 0.00139749
4 0.00423703
13200 4
1 0.00143189
2 0.00143951
3 0.00144535
4 0.00431675
13300 4
1 0.00141846
2 0.00140401
3 0.00141187
4 0.00423434
13400 4
1 0.0014126
2 0.00140212
3 0.0013861
4 0.00420082
13500 4
1 0.00141475
2 0.00138705
3 0.00137311
4 0.00417492
13600 4
1 0.00137577
2 0.00136452
3 0.00137064
4 0.00411093
13700 4
1 0.00136278
2 0.00135971
3 0.00135268
4 0.00407516
13800 4
1 0.00134142
2 0.00136016
3 0.00135587
4 0.00405745
13900 4
1 0.00135653
2 0.00133711
3 0.00132297
4 0.00401662
14000 4
1 0.00132172
2 0.00135161
3 0.00132232
4 0.00399564
14100 4
1 0.00132232
2 0.00132117
3 0.00131574
4 0.00395924
14200 4
1 0.0012957
2 0.00130981
3 0.00128968
4 0.00389519
14300 4
1 0.00129699
2 0.00128576
3 0.00128535
4 0.0038681
14400 4
1 0.00130513
2 0.00130968
3 0.0013097
4 0.00392451
14500 4
1 0.00126977
2 0.0012599
3 0.00125869
4 0.00378836
14600 4
1 0.00127792
2 0.00126706
3 0.00126128
4 0.00380626
14700 4
1 0.00128661
2 0.00126882
3 0.00125364
4 0.00380907
14800 4
1 0.00124996
2 0.00124643
3 0.00122941
4 0.0037258
14900 4
1 0.00123133
2 0.00124405
3 0.00122358
4 0.00369896
15000 4
1 0.00123256
2 0.00124325
3 0.00124141
4 0.00371722
15100 4
1 0.00122207
2 0.00121944
3 0.00120978
4 0.0036513
15200 4
1 0.00121818
2 0.00119858
3 0.00120558
4 0.00362234
15300 4
1 0.0012042
2 0.00122213
3 0.00121932
4 0.00364565
15400 4
1 0.00117662
2 0.00117173
3 0.00118111
4 0.00352945
15500 4
1 0.00118402
2 0.00118436
3 0.00119202
4 0.00356039
15600 4
1 0.00116628
2 0.00116872
3 0.00116307
4 0.00349807
15700 4
1 0.00118113
2 0.00116183
3 0.00116719
4 0.00351015
15800 4
1 0.00115558
2 0.00115952
3 0.00116034
4 0.00347544
15900 4
1 0.0011686
2 0.00114993
3 0.0011644
4 0.00348294
16000 4
1 0.00113863
2 0.00114648
3 0.00113505
4 0.00342016
16100 4
1 0.00113301
2 0.00114702
3 0.00113946
4 0.00341949
16200 4
1 0.00113327
2 0.00112712
3 0.00112677
4 0.00338715
16300 4
1 0.00110489
2 0.00112543
3 0.00111752
4 0.00334784
16400 4
1 0.00110926
2 0.00111116
3 0.00110777
4 0.00332819
16500 4
1 0.00110891
2 0.00110436
3 0.00109372
4 0.00330699
16600 4
1 0.00108582
2 0.00109043
3 0.00109169
4 0.00326794
16700 4
1 0.00109224
2 0.00109148
3 0.00110157
4 0.0032853
16800 4
1 0.00107567
2 0.00109424
3 0.00106518
4 0.00323509
16900 4
1 0.00107174
2 0.00108397
3 0.00107356
4 0.00322927
17000 4
1 0.00106373
2 0.00106834
3 0.0010712
4 0.00320327
17100 4
1 0.00106915
2 0.00106487
3 0.00106908
4 0.0032031
17200 4
1 0.0010572
2 0.00106796
3 0.00104921
4 0.00317438
17300 4
1 0.00105716
2 0.00105597
3 0.00105119
4 0.00316432
17400 4
1 0.0010531
2 0.00104161
3 0.00104392
4 0.00313863
17500 4
1 0.00103497
2 0.0010284
3 0.00103969
4 0.00310306
17600 4
1 0.00103021
2 0.0010409
3 0.00104006
4 0.00311117
17700 4
1 0.00102943
2 0.000996555
3 0.00103033
4 0.00305631
17800 4
1 0.00101859
2 0.00101847
3 0.00102419
4 0.00306125
17900 4
1 0.00102064
2 0.00102195
3 0.00101664
4 0.00305923
18000 4
1 0.00102947
2 0.000999367
3 0.00100342
4 0.00303226
18100 4
1 0.00100301
2 0.000997233
3 0.000999838
4 0.00300008
18200 4
1 0.00100615
2 0.000997556
3 0.000978314
4 0.00298202
18300 4
1 0.000991633
2 0.000984453
3 0.000995832
4 0.00297192
18400 4
1 0.000985387
2 0.000985591
3 0.00098573
4 0.00295671
18500 4
1 0.000979055
2 0.000983289
3 0.000973921
4 0.00293627
18600 4
1 0.000972734
2 0.000972448
3 0.000970595
4 0.00291578
18700 4
1 0.000980538
2 0.000971699
3 0.000963682
4 0.00291592
18800 4
1 0.000974118
2 0.000967983
3 0.000959344
4 0.00290144
18900 4
1 0.00097232
2 0.000960561
3 0.000949564
4 0.00288245
19000 4
1 0.00097531
2 0.00097301
3 0.000950923
4 0.00289924
19100 4
1 0.000952589
2 0.000946448
3 0.00095037
4 0.00284941
19200 4
1 0.000946302
2 0.000946732
3 0.000947482
4 0.00284052
19300 4
1 0.000959707
2 0.000937522
3 0.000946249
4 0.00284348
19400 4
1 0.000922545
2 0.000931448
3 0.000943093
4 0.00279709
19500 4
1 0.000951799
2 0.000943485
3 0.00094228
4 0.00283756
19600 4
1 0.000942685
2 0.000928006
3 0.000921939
4 0.00279263
19700 4
1 0.000924098
2 0.000924567
3 0.000917711
4 0.00276638
19800 4
1 0.000918234
2 0.000928626
3 0.000919445
4 0.00276631
19900 4
1 0.000920314
2 0.00091395
3 0.000913807
4 0.00274807
20000 4
1 0.000907275
2 0.000908016
3 0.000917143
4 0.00273243
20100 4
1 0.000919859
2 0.00091265
3 0.000902612
4 0.00273512
20200 4
1 0.000903377
2 0.000902277
3 0.000899276
4 0.00270493
20300 4
1 0.000890636
2 0.000893696
3 0.000911484
4 0.00269582
20400 4
1 0.000896197
2 0.000899487
3 0.000887414
4 0.0026831
20500 4
1 0.000893787
2 0.000889072
3 0.000875878
4 0.00265874
20600 4
1 0.000871558
2 0.000889609
3 0.000891302
4 0.00265247
20700 4
1 0.000893655
2 0.000895905
3 0.000878281
4 0.00266784
20800 4
1 0.00088514
2 0.000876232
3 0.000878563
4 0.00263994
20900 4
1 0.000886431
2 0.000874048
3 0.000882585
4 0.00264306
21000 4
1 0.000878285
2 0.000874053
3 0.000875207
4 0.00262754
21100 4
1 0.000871945
2 0.000860509
3 0.000882247
4 0.0026147
21200 4
1 0.00085883
2 0.000869058
3 0.000882044
4 0.00260993
21300 4
1 0.000885382
2 0.000869002
3 0.000862542
4 0.00261693
21400 4
1 0.000856247
2 0.000867091
3 0.000862069
4 0.00258541
21500 4
1 0.000864321
2 0.000860284
3 0.000851263
4 0.00257587
21600 4
1 0.000866809
2 0.000871117
3 0.000847574
4 0.0025855
21700 4
1 0.000860825
2 0.00087045
3 0.000830378
4 0.00256165
21800 4
1 0.000852921
2 0.000843338
3 0.000838372
4 0.00253463
21900 4
1 0.000835194
2 0.000854063
3 0.000836172
4 0.00252543
22000 4
1 0.000834044
2 0.000843107
3 0.000840845
4 0.002518
22100 4
1 0.000842022
2 0.000843996
3 0.000838557
4 0.00252458
22200 4
1 0.000833308
2 0.000841684
3 0.000851751
4 0.00252674
22300 4
1 0.000838376
2 0.00082776
3 0.000836553
4 0.00250269
22400 4
1 0.000831499
2 0.000839687
3 0.000835314
4 0.0025065
22500 4
1 0.000843549
2 0.000819494
3 0.000828984
4 0.00249203
22600 4
1 0.000833527
2 0.000838158
3 0.000826421
4 0.00249811
22700 4
1 0.000826472
2 0.000823616
3 0.000823424
4 0.00247351
22800 4
1 0.000831954
2 0.000824063
3 0.000815557
4 0.00247157
22900 4
1 0.000814072
2 0.000817459
3 0.000818296
4 0.00244983
23000 4
1 0.000837237
2 0.000821067
3 0.000821923
4 0.00248023
23100 4
1 0.000820686
2 0.000823044
3 0.000808177
4 0.00245191
23200 4
1 0.000819031
2 0.000813628
3 0.000802154
4 0.00243481
23300 4
1 0.000818341
2 0.00081576
3 0.000815149
4 0.00244925
23400 4
1 0.000815862
2 0.000825018
3 0.000814792
4 0.00245567
23500 4
1 0.000810548
2 0.000820856
3 0.000804855
4 0.00243626
23600 4
1 0.000805821
2 0.000826999
3 0.000803653
4 0.00243647
23700 4
1 0.000807029
2 0.000799474
3 0.000792224
4 0.00239873
23800 4
1 0.000791972
2 0.000811077
3 0.00079716
4 0.00240021
23900 4
1 0.000813488
2 0.00079311
3 0.000794855
4 0.00240145
24000 4
1 0.000801754
2 0.000798684
3 0.000795699
4 0.00239614
24100 4
1 0.000811062
2 0.000779551
3 0.000786511
4 0.00237712
24200 4
1 0.00078782
2 0.000792721
3 0.000793113
4 0.00237365
24300 4
1 0.000794091
2 0.00079717
3 0.000790689
4 0.00238195
24400 4
1 0.000790157
2 0.000800052
3 0.000792344
4 0.00238255
24500 4
1 0.000788748
2 0.000788834
3 0.000788765
4 0.00236635
24600 4
1 0.000790917
2 0.000785157
3 0.000784117
4 0.00236019
24700 4
1 0.000796839
2 0.000781642
3 0.000786412
4 0.00236489
24800 4
1 0.00078534
2 0.000794093
3 0.000789036
4 0.00236847
24900 4
1 0.000785313
2 0.000784947
3 0.000780828
4 0.00235109
25000 4
1 0.000781644
2 0.000777092
3 0.000786494
4 0.00234523
25100 4
1 0.000768865
2 0.000783163
3 0.00077798
4 0.00233001
25200 4
1 0.000786504
2 0.000781376
3 0.000768699
4 0.00233658
25300 4
1 0.000774818
2 0.000777259
3 0.000763342
4 0.00231542
25400 4
1 0.000780047
2 0.000769904
3 0.000780624
4 0.00233058
25500 4
1 0.000774481
2 0.000784905
3 0.000758915
4 0.0023183
25600 4
1 0.000774012
2 0.000776945
3 0.000770929
4 0.00232189
25700 4
1 0.000773775
2 0.000780879
3 0.000769335
4 0.00232399
25800 4
1 0.000765013
2 0.000781228
3 0.000758623
4 0.00230486
25900 4
1 0.000773288
2 0.000768989
3 0.000766615
4 0.00230889
26000 4
1 0.000769945
2 0.000769584
3 0.000761261
4 0.00230079
26100 4
1 0.000758145
2 0.000768264
3 0.000758742
4 0.00228515
26200 4
1 0.000766848
2 0.000778025
3 0.000774089
4 0.00231896
26300 4
1 0.000757412
2 0.000768817
3 0.00075476
4 0.00228099
26400 4
1 0.000760087
2 0.000759623
3 0.000760938
4 0.00228065
26500 4
1 0.000762485
2 0.000774791
3 0.000761212
4 0.00229849
26600 4
1 0.000764275
2 0.000755743
3 0.000763816
4 0.00228383
26700 4
1 0.000764482
2 0.000766374
3 0.00076061
4 0.00229147
26800 4
1 0.000765356
2 0.000760688
3 0.000771609
4 0.00229765
26900 4
1 0.000760407
2 0.000767987
3 0.000763438
4 0.00229183
27000 4
1 0.000760549
2 0.000772335
3 0.000758943
4 0.00229183
27100 4
1 0.000759714
2 0.000766964
3 0.000757832
4 0.00228451
27200 4
1 0.000762806
2 0.000777885
3 0.000759714
4 0.00230041
27300 4
1 0.000767423
2 0.000756633
3 0.000748291
4 0.00227235
27400 4
1 0.000762443
2 0.000763153
3 0.000749661
4 0.00227526
27500 4
1 0.000766329
2 0.000761781
3 0.000757978
4 0.00228609
27600 4
1 0.000754663
2 0.000759099
3 0.000755865
4 0.00226963
27700 4
1 0.000759606
2 0.00076262
3 0.000749444
4 0.00227167
27800 4
1 0.000746322
2 0.000765711
3 0.000766477
4 0.00227851
27900 4
1 0.000758567
2 0.000750434
3 0.000750333
4 0.00225933
28000 4
1 0.000757573
2 0.000763242
3 0.000756389
4 0.0022772
28100 4
1 0.000752164
2 0.000752344
3 0.000750751
4 0.00225526
28200 4
1 0.000763061
2 0.000751466
3 0.000754157
4 0.00226868
28300 4
1 0.000751856
2 0.000762975
3 0.000758107
4 0.00227294
28400 4
1 0.000756839
2 0.000760473
3 0.000749136
4 0.00226645
28500 4
1 0.000763938
2 0.000749574
3 0.000743594
4 0.00225711
28600 4
1 0.000755496
2 0.00075468
3 0.000762461
4 0.00227264
28700 4
1 0.000761689
2 0.00076044
3 0.00075902
4 0.00228115
28800 4
1 0.000754046
2 0.000761394
3 0.000751895
4 0.00226734
28900 4
1 0.000764559
2 0.000758555
3 0.000753559
4 0.00227667
29000 4
1 0.000763625
2 0.0007538
3 0.000742497
4 0.00225992
29100 4
1 0.000758578
2 0.000761113
3 0.000750048
4 0.00226974
29200 4
1 0.000761737
2 0.000753746
3 0.000761961
4 0.00227744
29300 4
1 0.000775558
2 0.000753551
3 0.000747702
4 0.00227681
29400 4
1 0.000763099
2 0.000766616
3 0.000744959
4 0.00227467
29500 4
1 0.000757594
2 0.000769754
3 0.00076451
4 0.00229186
29600 4
1 0.000762043
2 0.000764295
3 0.000759865
4 0.0022862
29700 4
1 0.00075532
2 0.000756684
3 0.000762977
4 0.00227498
29800 4
1 0.000761381
2 0.000774848
3 0.000755734
4 0.00229196
29900 4
1 0.000756774
2 0.000752207
3 0.000751547
4 0.00226053
30000 4
1 0.000751788
2 0.000755489
3 0.00075585
4 0.00226313
30100 4
1 0.000758423
2 0.00074776
3 0.000758868
4 0.00226505
30200 4
1 0.000753166
2 0.000767241
3 0.000758658
4 0.00227907
30300 4
1 0.000767262
2 0.000774151
3 0.000758653
4 0.00230006
30400 4
1 0.000772081
2 0.000763981
3 0.000765446
4 0.00230151
30500 4
1 0.000766232
2 0.000765121
3 0.000777853
4 0.00230921
30600 4
1 0.000784359
2 0.000772489
3 0.00076996
4 0.00232681
30700 4
1 0.000769702
2 0.000774881
3 0.000780351
4 0.00232493
30800 4
1 0.000765229
2 0.000762085
3 0.000761876
4 0.00228919
30900 4
1 0.000767722
2 0.000773668
3 0.000762811
4 0.0023042
31000 4
1 0.000773299
2 0.00076767
3 0.000767248
4 0.00230822
31100 4
1 0.000771996
2 0.000769793
3 0.000761657
4 0.00230345
31200 4
1 0.000784059
2 0.000778905
3 0.000773613
4 0.00233658
31300 4
1 0.000773499
2 0.000775584
3 0.000777191
4 0.00232627
31400 4
1 0.000785481
2 0.000783592
3 0.000784032
4 0.0023531
31500 4
1 0.000773529
2 0.000781687
3 0.000793551
4 0.00234877
31600 4
1 0.000782654
2 0.000783725
3 0.00078754
4 0.00235392
31700 4
1 0.00077396
2 0.000787845
3 0.000783926
4 0.00234573
31800 4
1 0.000783572
2 0.000778388
3 0.000788751
4 0.00235071
31900 4
1 0.000789828
2 0.000784541
3 0.000785339
4 0.00235971
32000 4
1 0.000791094
2 0.000792714
3 0.000776754
4 0.00236056
32100 4
1 0.000791912
2 0.000801044
3 0.000785685
4 0.00237864
32200 4
1 0.000792006
2 0.000799818
3 0.000785793
4 0.00237762
32300 4
1 0.000804643
2 0.00079854
3 0.000794247
4 0.00239743
32400 4
1 0.000801135
2 0.000783682
3 0.000798703
4 0.00238352
32500 4
1 0.00080986
2 0.00079962
3 0.00080982
4 0.0024193
32600 4
1 0.000815551
2 0.000795626
3 0.000813081
4 0.00242426
32700 4
1 0.000820052
2 0.000804088
3 0.000792666
4 0.00241681
32800 4
1 0.000819924
2 0.00081845
3 0.0008035
4 0.00244187
32900 4
1 0.000816252
2 0.000815024
3 0.000804873
4 0.00243615
33000 4
1 0.000823818
2 0.000827629
3 0.000812066
4 0.00246351
33100 4
1 0.000831528
2 0.000825421
3 0.000811507
4 0.00246846
33200 4
1 0.000810507
2 0.000822591
3 0.000813357
4 0.00244646
33300 4
1 0.00083683
2 0.00083583
3 0.000821514
4 0.00249417
33400 4
1 0.000836491
2 0.000839026
3 0.000830538
4 0.00250605
33500 4
1 0.000837562
2 0.000828448
3 0.000839871
4 0.00250588
33600 4
1 0.000846338
2 0.00083024
3 0.000839345
4 0.00251592
33700 4
1 0.000840213
2 0.000846439
3 0.000837768
4 0.00252442
33800 4
1 0.000853875
2 0.000834784
3 0.000833488
4 0.00252215
33900 4
1 0.000851432
2 0.000842726
3 0.000852145
4 0.0025463
34000 4
1 0.000859215
2 0.000852592
3 0.00084786
4 0.00255967
34100 4
1 0.00085218
2 0.000856206
3 0.000847418
4 0.0025558
34200 4
1 0.00085117
2 0.000865695
3 0.000860639
4 0.0025775
34300 4
1 0.000861687
2 0.000875052
3 0.000857191
4 0.00259393
34400 4
1 0.000872963
2 0.000864984
3 0.000871122
4 0.00260907
34500 4
1 0.000864045
2 0.000891523
3 0.000870747
4 0.00262632
34600 4
1 0.000885542
2 0.000873515
3 0.000884291
4 0.00264335
34700 4
1 0.000881855
2 0.000893102
3 0.000880583
4 0.00265554
34800 4
1 0.000893581
2 0.000886529
3 0.00088018
4 0.00266029
34900 4
1 0.000892412
2 0.000902215
3 0.000882946
4 0.00267757
35000 4
1 0.000895842
2 0.000892821
3 0.000888581
4 0.00267724
35100 4
1 0.00091012
2 0.000901707
3 0.000893873
4 0.0027057
35200 4
1 0.000916511
2 0.000898415
3 0.000910209
4 0.00272513
35300 4
1 0.000910357
2 0.000900571
3 0.000908347
4 0.00271927
35400 4
1 0.000912502
2 0.000918883
3 0.000915641
4 0.00274703
35500 4
1 0.00092275
2 0.000919016
3 0.000916751
4 0.00275852
35600 4
1 0.00093613
2 0.000913991
3 0.000929978
4 0.0027801
35700 4
1 0.000937821
2 0.000944201
3 0.000919029
4 0.00280105
35800 4
1 0.000938728
2 0.000946519
3 0.00093552
4 0.00282077
35900 4
1 0.00094983
2 0.000954944
3 0.000936963
4 0.00284174
36000 4
1 0.000949423
2 0.000953217
3 0.000945563
4 0.0028482
36100 4
1 0.000971204
2 0.000963439
3 0.000955422
4 0.00289007
36200 4
1 0.000964236
2 0.000973285
3 0.000983621
4 0.00292114
36300 4
1 0.000977954
2 0.000961183
3 0.000969138
4 0.00290828
36400 4
1 0.000988645
2 0.000990486
3 0.000997986
4 0.00297712
36500 4
1 0.000984968
2 0.000978574
3 0.00098769
4 0.00295123
36600 4
1 0.00100023
2 0.000986266
3 0.000986268
4 0.00297277
36700 4
1 0.0010155
2 0.00101473
3 0.00101033
4 0.00304056
36800 4
1 0.00101196
2 0.00101793
3 0.00100471
4 0.0030346
36900 4
1 0.00102753
2 0.00102311
3 0.00100071
4 0.00305135
37000 4
1 0.00104218
2 0.00104045
3 0.00103234
4 0.00311496
37100 4
1 0.00104879
2 0.00105118
3 0.00103518
4 0.00313515
37200 4
1 0.00106553
2 0.00104672
3 0.00106606
4 0.00317831
37300 4
1 0.00106949
2 0.00105803
3 0.00106348
4 0.003191
37400 4
1 0.00108565
2 0.00105967
3 0.00106461
4 0.00320993
37500 4
1 0.00108555
2 0.00106407
3 0.00107971
4 0.00322932
37600 4
1 0.00110594
2 0.00107594
3 0.00107655
4 0.00325843
37700 4
1 0.00110831
2 0.00107782
3 0.00110094
4 0.00328707
37800 4
1 0.00110399
2 0.00110582
3 0.00109132
4 0.00330112
37900 4
1 0.00112452
2 0.00112184
3 0.00111718
4 0.00336354
38000 4
1 0.00113177
2 0.00112189
3 0.00111948
4 0.00337313
38100 4
1 0.00115158
2 0.00114303
3 0.00112414
4 0.00341875
38200 4
1 0.00117126
2 0.00116202
3 0.00114018
4 0.00347347
38300 4
1 0.00117812
2 0.00115803
3 0.00115123
4 0.00348737
38400 4
1 0.00119062
2 0.00116706
3 0.0011915
4 0.00354917
38500 4
1 0.00119401
2 0.00117636
3 0.00116817
4 0.00353854
38600 4
1 0.00118558
2 0.00119144
3 0.0011909
4 0.00356792
38700 4
1 0.00120214
2 0.00120326
3 0.00120247
4 0.00360787
38800 4
1 0.00122115
2 0.00120145
3 0.00121147
4 0.00363407
38900 4
1 0.0012261
2 0.00121585
3 0.0012425
4 0.00368445
39000 4
1 0.00125072
2 0.00123094
3 0.00123122
4 0.00371287
39100 4
1 0.00125071
2 0.00124452
3 0.00125801
4 0.00375324
39200 4
1 0.0012625
2 0.00124886
3 0.00126864
4 0.00378
39300 4
1 0.00127395
2 0.0012775
3 0.00127067
4 0.00382212
39400 4
1 0.00131264
2 0.00127838
3 0.00128074
4 0.00387176
39500 4
1 0.00130371
2 0.0012883
3 0.00129908
4 0.00389109
39600 4
1 0.00133309
2 0.00131276
3 0.00131174
4 0.0039576
39700 4
1 0.00133211
2 0.0013245
3 0.00133221
4 0.00398881
39800 4
1 0.0013536
2 0.0013442
3 0.00132701
4 0.00402481
39900 4
1 0.00134459
2 0.00135392
3 0.00136
4 0.00405851
40000 4
1 0.00137943
2 0.00136834
3 0.00136979
4 0.00411757
40100 4
1 0.00139516
2 0.00137137
3 0.00137811
4 0.00414463
40200 4
1 0.00140052
2 0.00140259
3 0.00140324
4 0.00420635
40300 4
1 0.00142487
2 0.00140207
3 0.00140342
4 0.00423037
40400 4
1 0.00144351
2 0.00140992
3 0.0014004
4 0.00425383
40500 4
1 0.00144186
2 0.00145483
3 0.00142928
4 0.00432596
40600 4
1 0.00146949
2 0.00148503
3 0.00145692
4 0.00441144
40700 4
1 0.00147565
2 0.00147524
3 0.00144517
4 0.00439606
40800 4
1 0.00149688
2 0.00147291
3 0.00150736
4 0.00447716
40900 4
1 0.001528
2 0.00151134
3 0.00150829
4 0.00454763
41000 4
1 0.00151222
2 0.00153741
3 0.00152952
4 0.00457915
41100 4
1 0.00154207
2 0.00152769
3 0.00152161
4 0.00459137
41200 4
1 0.00156789
2 0.00155779
3 0.00155498
4 0.00468066
41300 4
1 0.00158212
2 0.00157938
3 0.0015537
4 0.0047152
41400 4
1 0.00159214
2 0.00158077
3 0.00160739
4 0.0047803
41500 4
1 0.00161939
2 0.00162327
3 0.00158077
4 0.00482343
41600 4
1 0.00162228
2 0.00163483
3 0.00163879
4 0.0048959
41700 4
1 0.00163367
2 0.00166131
3 0.00164935
4 0.00494432
41800 4
1 0.001671
2 0.00165458
3 0.00165619
4 0.00498177
41900 4
1 0.00167987
2 0.00167398
3 0.0016801
4 0.00503395
42000 4
1 0.00171386
2 0.00170344
3 0.00168736
4 0.00510465
42100 4
1 0.0017207
2 0.00170394
3 0.00172021
4 0.00514484
42200 4
1 0.00173794
2 0.00175644
3 0.00173305
4 0.00522743
42300 4
1 0.00173981
2 0.00173263
3 0.00174643
4 0.00521886
42400 4
1 0.00178022
2 0.00180692
3 0.00176896
4 0.0053561
42500 4
1 0.0017921
2 0.00180703
3 0.00179938
4 0.00539851
42600 4
1 0.00182366
2 0.00179216
3 0.00182005
4 0.00543587
42700 4
1 0.00182711
2 0.00186301
3 0.00183896
4 0.00552907
42800 4
1 0.00182933
2 0.00185379
3 0.00184411
4 0.00552723
42900 4
1 0.00185917
2 0.00185873
3 0.00186535
4 0.00558325
43000 4
1 0.00188625
2 0.00191124
3 0.00186927
4 0.00566675
43100 4
1 0.0018995
2 0.00189549
3 0.00191045
4 0.00570544
43200 4
1 0.00193061
2 0.00193951
3 0.00191538
4 0.0057855
43300 4
1 0.00195049
2 0.00198466
3 0.0019145
4 0.00584966
43400 4
1 0.00197546
2 0.00195918
3 0.00196885
4 0.0059035
43500 4
1 0.00199744
2 0.00200929
3 0.00199476
4 0.00600148
43600 4
1 0.00203074
2 0.00200002
3 0.00200223
4 0.00603299
43700 4
1 0.00204281
2 0.00201551
3 0.0020172
4 0.00607551
43800 4
1 0.0020612
2 0.00204707
3 0.00202051
4 0.00612878
43900 4
1 0.00207733
2 0.00205381
3 0.00205168
4 0.00618281
44000 4
1 0.00205778
2 0.00206538
3 0.00205151
4 0.00617466
44100 4
1 0.00209489
2 0.00209514
3 0.00208754
4 0.00627757
44200 4
1 0.00206813
2 0.00207375
3 0.00211143
4 0.00625332
44300 4
1 0.0021738
2 0.00212877
3 0.00214225
4 0.00644482
44400 4
1 0.00217574
2 0.00218025
3 0.00217849
4 0.00653448
44500 4
1 0.00217463
2 0.0021723
3 0.00215899
4 0.00650592
44600 4
1 0.00222508
2 0.0021537
3 0.00220937
4 0.00658815
44700 4
1 0.00222847
2 0.00225401
3 0.00221626
4 0.00669873
44800 4
1 0.00224039
2 0.00224951
3 0.00223104
4 0.00672094
44900 4
1 0.0022821
2 0.00227117
3 0.00227729
4 0.00683056
45000 4
1 0.00228436
2 0.00227865
3 0.00224097
4 0.00680397
45100 4
1 0.00229839
2 0.00227631
3 0.00228118
4 0.00685588
45200 4
1 0.00229416
2 0.00230697
3 0.00231906
4 0.00692019
45300 4
1 0.00233331
2 0.00232198
3 0.00234222
4 0.00699751
45400 4
1 0.00237821
2 0.00235095
3 0.00237187
4 0.00710103
45500 4
1 0.00239669
2 0.00237823
3 0.00238048
4 0.00715541
45600 4
1 0.00240549
2 0.002407
3 0.0023644
4 0.00717689
45700 4
1 0.00242761
2 0.00239451
3 0.00237443
4 0.00719655
45800 4
1 0.00245328
2 0.00239009
3 0.00239454
4 0.00723791
45900 4
1 0.00245504
2 0.00243671
3 0.00245943
4 0.00735117
46000 4
1 0.00248778
2 0.00247937
3 0.00244136
4 0.00740851
46100 4
1 0.00246459
2 0.00246582
3 0.00250095
4 0.00743136
46200 4
1 0.00251287
2 0.00250458
3 0.00250727
4 0.00752473
46300 4
1 0.00252734
2 0.00250047
3 0.00252511
4 0.00755292
46400 4
1 0.0025364
2 0.00254278
3 0.00257672
4 0.0076559
46500 4
1 0.00254613
2 0.00258816
3 0.00258052
4 0.00771481
46600 4
1 0.00257775
2 0.00256278
3 0.00255943
4 0.00769996
46700 4
1 0.00258198
2 0.00255588
3 0.00257034
4 0.00770821
46800 4
1 0.00257573
2 0.0025883
3 0.00256913
4 0.00773316
46900 4
1 0.00261716
2 0.00258816
3 0.00260996
4 0.00781527
47000 4
1 0.00262319
2 0.00265252
3 0.00262426
4 0.00789997
47100 4
1 0.00266409
2 0.00267459
3 0.00264454
4 0.00798321
47200 4
1 0.00269193
2 0.00265955
3 0.00265049
4 0.00800197
47300 4
1 0.0027042
2 0.00264195
3 0.002671
4 0.00801715
47400 4
1 0.00273269
2 0.00263542
3 0.0026721
4 0.00804021
47500 4
1 0.002719
2 0.00266736
3 0.00271883
4 0.00810519
47600 4
1 0.00274536
2 0.00269213
3 0.00273758
4 0.00817507
47700 4
1 0.00277091
2 0.0027596
3 0.00273093
4 0.00826143
47800 4
1 0.00278107
2 0.00272124
3 0.00274444
4 0.00824674
47900 4
1 0.00278125
2 0.00272963
3 0.00274124
4 0.00825211
48000 4
1 0.00280516
2 0.00275745
3 0.0027681
4 0.00833071
48100 4
1 0.00280579
2 0.00277012
3 0.00276275
4 0.00833866
48200 4
1 0.0027918
2 0.00278765
3 0.00282597
4 0.00840541
48300 4
1 0.00280082
2 0.00282948
3 0.00278745
4 0.00841775
48400 4
1 0.00281517
2 0.00283083
3 0.0028319
4 0.0084779
48500 4
1 0.00287034
2 0.00283537
3 0.00284389
4 0.0085496
48600 4
1 0.00284747
2 0.00289761
3 0.00284785
4 0.00859292
48700 4
1 0.00284936
2 0.00282886
3 0.00287532
4 0.00855354
48800 4
1 0.0028783
2 0.00284511
3 0.00288232
4 0.00860573
48900 4
1 0.00289406
2 0.00285361
3 0.00288332
4 0.008631
49000 4
1 0.00291028
2 0.00290411
3 0.00292577
4 0.00874016
49100 4
1 0.00287464
2 0.00291479
3 0.00289842
4 0.00868786
49200 4
1 0.00289398
2 0.00292686
3 0.00291569
4 0.00873653
49300 4
1 0.0029641
2 0.00293786
3 0.00288876
4 0.00879071
49400 4
1 0.0029314
2 0.00292704
3 0.00291181
4 0.00877025
49500 4
1 0.00296989
2 0.0029614
3 0.00288835
4 0.00881965
49600 4
1 0.0029376
2 0.00292877
3 0.0029262
4 0.00879256
49700 4
1 0.00294135
2 0.00294246
3 0.0029311
4 0.0088149